0 16166 
1 16140 
2 16000 
3 15680 
4 15480 
5 15440 
6 15400 
7 15338 
8 15108 
9 15018 
10 14586 
11 14548 
12 14532 
13 14382 
14 14192 
15 14180 
16 14150 
17 14134 
18 14130 
19 14116 
20 14080 
21 13640 
22 13570 
23 13564 
24 13478 
25 13392 
26 13388 
27 13212 
28 13144 
29 13086 
30 12756 
31 12628 
32 12620 
33 12596 
34 12566 
35 12554 
36 12444 
37 12374 
38 12318 
39 12148 
40 12000 
41 11836 
42 11630 
43 11434 
44 11352 
45 11248 
46 11232 
47 11184 
48 10832 
49 10762 
50 10658 
51 10606 
52 10570 
53 10548 
54 10482 
55 9886 
56 9814 
57 9714 
58 9588 
59 9426 
60 9418 
61 9186 
62 9164 
63 9054 
64 8936 
65 8808 
66 8572 
67 8568 
68 8556 
69 8338 
70 8318 
71 8082 
72 8068 
73 8036 
74 8008 
75 7940 
76 7868 
77 7862 
78 7750 
79 7630 
80 7560 
81 7500 
82 7350 
83 7250 
84 7090 
85 6988 
86 6952 
87 6904 
88 6902 
89 6888 
90 6768 
91 6748 
92 6650 
93 6590 
94 6334 
95 6334 
96 6334 
97 6320 
98 6282 
99 6274 
100 6188 
101 6028 
102 5910 
103 5878 
104 5878 
105 5776 
106 5738 
107 5672 
108 5672 
109 5672 
110 5644 
111 5570 
112 5570 
113 5540 
114 5514 
115 5514 
116 5514 
117 5514 
118 5514 
119 5514 
120 5514 
121 5514 
122 5514 
123 5514 
124 5514 
125 5514 
126 5514 
127 5514 
128 5514 
129 5514 
130 5514 
131 5514 
132 5514 
133 5514 
134 5514 
135 5514 
136 5514 
137 5514 
138 5514 
139 5514 
140 5514 
141 5514 
142 5514 
143 5514 
144 5514 
145 5514 
146 5514 
147 5514 
148 5514 
149 5514 
150 5514 
151 5514 
152 5514 
153 5514 
154 5514 
155 5514 
156 5514 
157 5514 
158 5514 
159 5514 
160 5514 
161 5514 
162 5514 
163 5514 
164 5514 
165 5514 
166 5514 
167 5514 
168 5514 
169 5514 
170 5514 
171 5514 
172 5514 
173 5514 
174 5514 
175 5514 
176 5514 
177 5514 
178 5514 
179 5514 
180 5514 
181 5514 
182 5514 
183 5514 
184 5514 
185 5514 
186 5514 
187 5514 
188 5514 
189 5514 
190 5514 
191 5514 
192 5514 
193 5514 
194 5514 
195 5514 
196 5514 
197 5514 
198 5514 
199 5514 
200 5514 
201 5514 
202 5514 
203 5514 
204 5514 
205 5514 
206 5514 
207 5514 
208 5514 
209 5514 
210 5514 
211 5514 
212 5514 
213 5514 
214 5514 
215 5514 
216 5514 
217 5514 
218 5514 
219 5514 
220 5514 
221 5514 
222 5514 
223 5514 
224 5514 
225 5514 
226 5514 
227 5514 
228 5514 
229 5514 
230 5514 
231 5514 
232 5514 
233 5514 
234 5514 
235 5514 
236 5514 
237 5514 
238 5514 
239 5514 
240 5514 
241 5514 
242 5514 
243 5514 
244 5514 
245 5514 
246 5514 
247 5514 
248 5514 
249 5514 
250 5514 
251 5514 
252 5514 
253 5514 
254 5514 
255 5514 
256 5514 
257 5514 
258 5514 
259 5514 
260 5514 
261 5514 
262 5514 
263 5514 
264 5514 
265 5514 
266 5514 
267 5514 
268 5514 
269 5514 
270 5514 
271 5514 
272 5514 
273 5514 
274 5514 
275 5514 
276 5514 
277 5514 
278 5514 
279 5514 
280 5514 
281 5514 
282 5514 
283 5514 
284 5514 
285 5514 
286 5514 
287 5514 
288 5514 
289 5514 
290 5514 
291 5514 
292 5514 
293 5514 
294 5514 
295 5514 
296 5514 
297 5514 
298 5514 
299 5514 
300 5514 
301 5514 
302 5514 
303 5514 
304 5514 
305 5514 
306 5514 
307 5514 
308 5514 
309 5514 
310 5514 
311 5514 
312 5514 
313 5514 
314 5514 
315 5514 
316 5514 
317 5514 
318 5514 
319 5514 
320 5514 
321 5514 
322 5514 
323 5514 
324 5514 
325 5514 
326 5514 
327 5514 
328 5514 
329 5514 
330 5514 
331 5514 
332 5514 
333 5514 
334 5514 
335 5514 
336 5514 
337 5514 
338 5514 
339 5514 
340 5514 
341 5514 
342 5514 
343 5514 
344 5514 
345 5514 
346 5514 
347 5514 
348 5514 
349 5514 
350 5514 
351 5514 
352 5514 
353 5514 
354 5514 
355 5514 
356 5514 
357 5514 
358 5514 
359 5514 
360 5514 
361 5514 
362 5514 
363 5514 
364 5514 
365 5514 
366 5514 
367 5514 
368 5514 
369 5514 
370 5514 
371 5514 
372 5514 
373 5514 
374 5514 
375 5514 
376 5514 
377 5514 
378 5514 
379 5514 
380 5514 
381 5514 
382 5514 
383 5514 
384 5514 
385 5514 
386 5514 
387 5514 
388 5514 
389 5514 
390 5514 
391 5514 
392 5514 
393 5514 
394 5514 
395 5514 
396 5514 
397 5514 
398 5514 
399 5514 
400 5514 
401 5514 
402 5514 
403 5514 
404 5514 
405 5514 
406 5514 
407 5514 
408 5514 
409 5514 
410 5514 
411 5514 
412 5514 
413 5514 
414 5514 
415 5514 
416 5514 
417 5514 
418 5514 
419 5514 
420 5514 
421 5514 
422 5514 
423 5514 
424 5514 
425 5514 
426 5514 
427 5514 
428 5514 
429 5514 
430 5514 
431 5514 
432 5514 
433 5514 
434 5514 
435 5514 
436 5514 
437 5514 
438 5514 
439 5514 
440 5514 
441 5514 
442 5514 
443 5514 
444 5514 
445 5514 
446 5514 
447 5514 
448 5514 
449 5514 
450 5514 
451 5514 
452 5514 
453 5514 
454 5514 
455 5514 
456 5514 
457 5514 
458 5514 
459 5514 
460 5514 
461 5514 
462 5514 
463 5514 
464 5514 
465 5514 
466 5514 
467 5514 
468 5514 
469 5514 
470 5514 
471 5514 
472 5514 
473 5514 
474 5514 
475 5514 
476 5514 
477 5514 
478 5514 
479 5514 
480 5514 
481 5514 
482 5514 
483 5514 
484 5514 
485 5514 
486 5514 
487 5514 
488 5514 
489 5514 
490 5514 
491 5514 
492 5514 
493 5514 
494 5514 
495 5514 
496 5514 
497 5514 
498 5514 
499 5514 
500 5514 
501 5514 
502 5514 
503 5514 
504 5514 
505 5514 
506 5514 
507 5514 
508 5514 
509 5514 
510 5514 
511 5514 
512 5514 
513 5514 
514 5514 
515 5514 
516 5514 
517 5514 
518 5514 
519 5514 
520 5514 
521 5514 
522 5514 
523 5514 
524 5514 
525 5514 
526 5514 
527 5514 
528 5514 
529 5514 
530 5514 
531 5514 
532 5514 
533 5514 
534 5514 
535 5514 
536 5514 
537 5514 
538 5514 
539 5514 
540 5514 
541 5514 
542 5514 
543 5514 
544 5514 
545 5514 
546 5514 
547 5514 
548 5514 
549 5514 
550 5514 
551 5514 
552 5514 
553 5514 
554 5514 
555 5514 
556 5514 
557 5514 
558 5514 
559 5514 
560 5514 
561 5514 
562 5514 
563 5514 
564 5514 
565 5514 
566 5514 
567 5514 
568 5514 
569 5514 
570 5514 
571 5514 
572 5514 
573 5514 
574 5514 
575 5514 
576 5514 
577 5514 
578 5514 
579 5514 
580 5514 
581 5514 
582 5514 
583 5514 
584 5514 
585 5514 
586 5514 
587 5514 
588 5514 
589 5514 
590 5514 
591 5514 
592 5514 
593 5514 
594 5514 
595 5514 
596 5514 
597 5514 
598 5514 
599 5514 
600 5514 
601 5514 
602 5514 
603 5514 
604 5514 
605 5514 
606 5514 
607 5514 
608 5514 
609 5514 
610 5514 
611 5514 
612 5514 
613 5514 
614 5514 
615 5514 
616 5514 
617 5514 
618 5514 
619 5514 
620 5514 
621 5514 
622 5514 
623 5514 
624 5514 
625 5514 
626 5514 
627 5514 
628 5514 
629 5514 
630 5514 
631 5514 
632 5514 
633 5514 
634 5514 
635 5514 
636 5514 
637 5514 
638 5514 
639 5514 
640 5514 
641 5514 
642 5514 
643 5514 
644 5514 
645 5514 
646 5514 
647 5514 
648 5514 
649 5514 
650 5514 
651 5514 
652 5514 
653 5514 
654 5514 
655 5514 
656 5514 
657 5514 
658 5514 
659 5514 
660 5514 
661 5514 
662 5514 
663 5514 
664 5514 
665 5514 
666 5514 
667 5514 
668 5514 
669 5514 
670 5514 
671 5514 
672 5514 
673 5514 
674 5514 
675 5514 
676 5514 
677 5514 
678 5514 
679 5514 
680 5514 
681 5514 
682 5514 
683 5514 
684 5514 
685 5514 
686 5514 
687 5514 
688 5514 
689 5514 
690 5514 
691 5514 
692 5514 
693 5514 
694 5514 
695 5514 
696 5514 
697 5514 
698 5514 
699 5514 
700 5514 
701 5514 
702 5514 
703 5514 
704 5514 
705 5514 
706 5514 
707 5514 
708 5514 
709 5514 
710 5514 
711 5514 
712 5514 
713 5514 
714 5514 
715 5514 
716 5514 
717 5514 
718 5514 
719 5514 
720 5514 
721 5514 
722 5514 
723 5514 
724 5514 
725 5514 
726 5514 
727 5514 
728 5514 
729 5514 
730 5514 
731 5514 
732 5514 
733 5514 
734 5514 
735 5514 
736 5514 
737 5514 
738 5514 
739 5514 
740 5514 
741 5514 
742 5514 
743 5514 
744 5514 
745 5514 
746 5514 
747 5514 
748 5514 
749 5514 
750 5514 
751 5514 
752 5514 
753 5514 
754 5514 
755 5514 
756 5514 
757 5514 
758 5514 
759 5514 
760 5514 
761 5514 
762 5514 
763 5514 
764 5514 
765 5514 
766 5514 
767 5514 
768 5514 
769 5514 
770 5514 
771 5514 
772 5514 
773 5514 
774 5514 
775 5514 
776 5514 
777 5514 
778 5514 
779 5514 
780 5514 
781 5514 
782 5514 
783 5514 
784 5514 
785 5514 
786 5514 
787 5514 
788 5514 
789 5514 
790 5514 
791 5514 
792 5514 
793 5514 
794 5514 
795 5514 
796 5514 
797 5514 
798 5514 
799 5514 
800 5514 
801 5514 
802 5514 
803 5514 
804 5514 
805 5514 
806 5514 
807 5514 
808 5514 
809 5514 
810 5514 
811 5514 
812 5514 
813 5514 
814 5514 
815 5514 
816 5514 
817 5514 
818 5514 
819 5514 
820 5514 
821 5514 
822 5514 
823 5514 
824 5514 
825 5514 
826 5514 
827 5514 
828 5514 
829 5514 
830 5514 
831 5514 
832 5514 
833 5514 
834 5514 
835 5514 
836 5514 
837 5514 
838 5514 
839 5514 
840 5514 
841 5514 
842 5514 
843 5514 
844 5514 
845 5514 
846 5514 
847 5514 
848 5514 
849 5514 
850 5514 
851 5514 
852 5514 
853 5514 
854 5514 
855 5514 
856 5514 
857 5514 
858 5514 
859 5514 
860 5514 
861 5514 
862 5514 
863 5514 
864 5514 
865 5514 
866 5514 
867 5514 
868 5514 
869 5514 
870 5514 
871 5514 
872 5514 
873 5514 
874 5514 
875 5514 
876 5514 
877 5514 
878 5514 
879 5514 
880 5514 
881 5514 
882 5514 
883 5514 
884 5514 
885 5514 
886 5514 
887 5514 
888 5514 
889 5514 
890 5514 
891 5514 
892 5514 
893 5514 
894 5514 
895 5514 
896 5514 
897 5514 
898 5514 
899 5514 
900 5514 
901 5514 
902 5514 
903 5514 
904 5514 
905 5514 
906 5514 
907 5514 
908 5514 
909 5514 
910 5514 
911 5514 
912 5514 
913 5514 
914 5514 
915 5514 
916 5514 
917 5514 
918 5514 
919 5514 
920 5514 
921 5514 
922 5514 
923 5514 
924 5514 
925 5514 
926 5514 
927 5514 
928 5514 
929 5514 
930 5514 
931 5514 
932 5514 
933 5514 
934 5514 
935 5514 
936 5514 
937 5514 
938 5514 
939 5514 
940 5514 
941 5514 
942 5514 
943 5514 
944 5514 
945 5514 
946 5514 
947 5514 
948 5514 
949 5514 
950 5514 
951 5514 
952 5514 
953 5514 
954 5514 
955 5514 
956 5514 
957 5514 
958 5514 
959 5514 
960 5514 
961 5514 
962 5514 
963 5514 
964 5514 
965 5514 
966 5514 
967 5514 
968 5514 
969 5514 
970 5514 
971 5514 
972 5514 
973 5514 
974 5514 
975 5514 
976 5514 
977 5514 
978 5514 
979 5514 
980 5514 
981 5514 
982 5514 
983 5514 
984 5514 
985 5514 
986 5514 
987 5514 
988 5514 
989 5514 
990 5514 
991 5514 
992 5514 
993 5514 
994 5514 
995 5514 
996 5514 
997 5514 
998 5514 
999 5514 
1000 5514 
1001 5514 
1002 5514 
1003 5514 
1004 5514 
1005 5514 
1006 5514 
1007 5514 
1008 5514 
1009 5514 
1010 5514 
1011 5514 
1012 5514 
1013 5514 
1014 5514 
1015 5514 
1016 5514 
1017 5514 
1018 5514 
1019 5514 
1020 5514 
1021 5514 
1022 5514 
1023 5514 
1024 5514 
1025 5514 
1026 5514 
1027 5514 
1028 5514 
1029 5514 
1030 5514 
1031 5514 
1032 5514 
1033 5514 
1034 5514 
1035 5514 
1036 5514 
1037 5514 
1038 5514 
1039 5514 
1040 5514 
1041 5514 
1042 5514 
1043 5514 
1044 5514 
1045 5514 
1046 5514 
1047 5514 
1048 5514 
1049 5514 
1050 5514 
1051 5514 
1052 5514 
1053 5514 
1054 5514 
1055 5514 
1056 5514 
1057 5514 
1058 5514 
1059 5514 
1060 5514 
1061 5514 
1062 5514 
1063 5514 
1064 5514 
1065 5514 
1066 5514 
1067 5514 
1068 5514 
1069 5514 
1070 5514 
1071 5514 
1072 5514 
1073 5514 
1074 5514 
1075 5514 
1076 5514 
1077 5514 
1078 5514 
1079 5514 
1080 5514 
1081 5514 
1082 5514 
1083 5514 
1084 5514 
1085 5514 
1086 5514 
1087 5514 
1088 5514 
1089 5514 
1090 5514 
1091 5514 
1092 5514 
1093 5514 
1094 5514 
1095 5514 
1096 5514 
1097 5514 
1098 5514 
1099 5514 
1100 5514 
1101 5514 
1102 5514 
1103 5514 
1104 5514 
1105 5514 
1106 5514 
1107 5514 
1108 5514 
1109 5514 
1110 5514 
1111 5514 
1112 5514 
1113 5514 
1114 5514 
1115 5514 
1116 5514 
1117 5514 
1118 5514 
1119 5514 
1120 5514 
1121 5514 
1122 5514 
1123 5514 
1124 5514 
1125 5514 
1126 5514 
1127 5514 
1128 5514 
1129 5514 
1130 5514 
1131 5514 
1132 5514 
1133 5514 
1134 5514 
1135 5514 
1136 5514 
1137 5514 
1138 5514 
1139 5514 
1140 5514 
1141 5514 
1142 5514 
1143 5514 
1144 5514 
1145 5514 
1146 5514 
1147 5514 
1148 5514 
1149 5514 
1150 5514 
1151 5514 
1152 5514 
1153 5514 
1154 5514 
1155 5514 
1156 5514 
1157 5514 
1158 5514 
1159 5514 
1160 5514 
1161 5514 
1162 5514 
1163 5514 
1164 5514 
1165 5514 
1166 5514 
1167 5514 
1168 5514 
1169 5514 
1170 5514 
1171 5514 
1172 5514 
1173 5514 
1174 5514 
1175 5514 
1176 5514 
1177 5514 
1178 5514 
1179 5514 
1180 5514 
1181 5514 
1182 5514 
1183 5514 
1184 5514 
1185 5514 
1186 5514 
1187 5514 
1188 5514 
1189 5514 
1190 5514 
1191 5514 
1192 5514 
1193 5514 
1194 5514 
1195 5514 
1196 5514 
1197 5514 
1198 5514 
1199 5514 
1200 5514 
1201 5514 
1202 5514 
1203 5514 
1204 5514 
1205 5514 
1206 5514 
1207 5514 
1208 5514 
1209 5514 
1210 5514 
1211 5514 
1212 5514 
1213 5514 
1214 5514 
1215 5514 
1216 5514 
1217 5514 
1218 5514 
1219 5514 
1220 5514 
1221 5514 
1222 5514 
1223 5514 
1224 5514 
1225 5514 
1226 5514 
1227 5514 
1228 5514 
1229 5514 
1230 5514 
1231 5514 
1232 5514 
1233 5514 
1234 5514 
1235 5514 
1236 5514 
1237 5514 
1238 5514 
1239 5514 
1240 5514 
1241 5514 
1242 5514 
1243 5514 
1244 5514 
1245 5514 
1246 5514 
1247 5514 
1248 5514 
1249 5514 
1250 5514 
1251 5514 
1252 5514 
1253 5514 
1254 5514 
1255 5514 
1256 5514 
1257 5514 
1258 5514 
1259 5514 
1260 5514 
1261 5514 
1262 5514 
1263 5514 
1264 5514 
1265 5514 
1266 5514 
1267 5514 
1268 5514 
1269 5514 
1270 5514 
1271 5514 
1272 5514 
1273 5514 
1274 5514 
1275 5514 
1276 5514 
1277 5514 
1278 5514 
1279 5514 
1280 5514 
1281 5514 
1282 5514 
1283 5514 
1284 5514 
1285 5514 
1286 5514 
1287 5514 
1288 5514 
1289 5514 
1290 5514 
1291 5514 
1292 5514 
1293 5514 
1294 5514 
1295 5514 
1296 5514 
1297 5514 
1298 5514 
1299 5514 
1300 5514 
1301 5514 
1302 5514 
1303 5514 
1304 5514 
1305 5514 
1306 5514 
1307 5514 
1308 5514 
1309 5514 
1310 5514 
1311 5514 
1312 5514 
1313 5514 
1314 5514 
1315 5514 
1316 5514 
1317 5514 
1318 5514 
1319 5514 
1320 5514 
1321 5514 
1322 5514 
1323 5514 
1324 5514 
1325 5514 
1326 5514 
1327 5514 
1328 5514 
1329 5514 
1330 5514 
1331 5514 
1332 5514 
1333 5514 
1334 5514 
1335 5514 
1336 5514 
1337 5514 
1338 5514 
1339 5514 
1340 5514 
1341 5514 
1342 5514 
1343 5514 
1344 5514 
1345 5514 
1346 5514 
1347 5514 
1348 5514 
1349 5514 
1350 5514 
1351 5514 
1352 5514 
1353 5514 
1354 5514 
1355 5514 
1356 5514 
1357 5514 
1358 5514 
1359 5514 
1360 5514 
1361 5514 
1362 5514 
1363 5514 
1364 5514 
1365 5514 
1366 5514 
1367 5514 
1368 5514 
1369 5514 
1370 5514 
1371 5514 
1372 5514 
1373 5514 
1374 5514 
1375 5514 
1376 5514 
1377 5514 
1378 5514 
1379 5514 
1380 5514 
1381 5514 
1382 5514 
1383 5514 
1384 5514 
1385 5514 
1386 5514 
1387 5514 
1388 5514 
1389 5514 
1390 5514 
1391 5514 
1392 5514 
1393 5514 
1394 5514 
1395 5514 
1396 5514 
1397 5514 
1398 5514 
1399 5514 
1400 5514 
1401 5514 
1402 5514 
1403 5514 
1404 5514 
1405 5514 
1406 5514 
1407 5514 
1408 5514 
1409 5514 
1410 5514 
1411 5514 
1412 5514 
1413 5514 
1414 5514 
1415 5514 
1416 5514 
1417 5514 
1418 5514 
1419 5514 
1420 5514 
1421 5514 
1422 5514 
1423 5514 
1424 5514 
1425 5514 
1426 5514 
1427 5514 
1428 5514 
1429 5514 
1430 5514 
1431 5514 
1432 5514 
1433 5514 
1434 5514 
1435 5514 
1436 5514 
1437 5514 
1438 5514 
1439 5514 
1440 5514 
1441 5514 
1442 5514 
1443 5514 
1444 5514 
1445 5514 
1446 5514 
1447 5514 
1448 5514 
1449 5514 
1450 5514 
1451 5514 
1452 5514 
1453 5514 
1454 5514 
1455 5514 
1456 5514 
1457 5514 
1458 5514 
1459 5514 
1460 5514 
1461 5514 
1462 5514 
1463 5514 
1464 5514 
1465 5514 
1466 5514 
1467 5514 
1468 5514 
1469 5514 
1470 5514 
1471 5514 
1472 5514 
1473 5514 
1474 5514 
1475 5514 
1476 5514 
1477 5514 
1478 5514 
1479 5514 
1480 5514 
1481 5514 
1482 5514 
1483 5514 
1484 5514 
1485 5514 
1486 5514 
1487 5514 
1488 5514 
1489 5514 
1490 5514 
1491 5514 
1492 5514 
1493 5514 
1494 5514 
1495 5514 
1496 5514 
1497 5514 
1498 5514 
1499 5514 
1500 5514 
1501 5514 
1502 5514 
1503 5514 
1504 5514 
1505 5514 
1506 5514 
1507 5514 
1508 5514 
1509 5514 
1510 5514 
1511 5514 
1512 5514 
1513 5514 
1514 5514 
1515 5514 
1516 5514 
1517 5514 
1518 5514 
1519 5514 
1520 5514 
1521 5514 
1522 5514 
1523 5514 
1524 5514 
1525 5514 
1526 5514 
1527 5514 
1528 5514 
1529 5514 
1530 5514 
1531 5514 
1532 5514 
1533 5514 
1534 5514 
1535 5514 
1536 5514 
1537 5514 
1538 5514 
1539 5514 
1540 5514 
1541 5514 
1542 5514 
1543 5514 
1544 5514 
1545 5514 
1546 5514 
1547 5514 
1548 5514 
1549 5514 
1550 5514 
1551 5514 
1552 5514 
1553 5514 
1554 5514 
1555 5514 
1556 5514 
1557 5514 
1558 5514 
1559 5514 
1560 5514 
1561 5514 
1562 5514 
1563 5514 
1564 5514 
1565 5514 
1566 5514 
1567 5514 
1568 5514 
1569 5514 
1570 5514 
1571 5514 
1572 5514 
1573 5514 
1574 5514 
1575 5514 
1576 5514 
1577 5514 
1578 5514 
1579 5514 
1580 5514 
1581 5514 
1582 5514 
1583 5514 
1584 5514 
1585 5514 
1586 5514 
1587 5514 
1588 5514 
1589 5514 
1590 5514 
1591 5514 
1592 5514 
1593 5514 
1594 5514 
1595 5514 
1596 5514 
1597 5514 
1598 5514 
1599 5514 
1600 5514 
1601 5514 
1602 5514 
1603 5514 
1604 5514 
1605 5514 
1606 5514 
1607 5514 
1608 5514 
1609 5514 
1610 5514 
1611 5514 
1612 5514 
1613 5514 
1614 5514 
1615 5514 
1616 5514 
1617 5514 
1618 5514 
1619 5514 
1620 5514 
1621 5514 
1622 5514 
1623 5514 
1624 5514 
1625 5514 
1626 5514 
1627 5514 
1628 5514 
1629 5514 
1630 5514 
1631 5514 
1632 5514 
1633 5514 
1634 5514 
1635 5514 
1636 5514 
1637 5514 
1638 5514 
1639 5514 
1640 5514 
1641 5514 
1642 5514 
1643 5514 
1644 5514 
1645 5514 
1646 5514 
1647 5514 
1648 5514 
1649 5514 
1650 5514 
1651 5514 
1652 5514 
1653 5514 
1654 5514 
1655 5514 
1656 5514 
1657 5514 
1658 5514 
1659 5514 
1660 5514 
1661 5514 
1662 5514 
1663 5514 
1664 5514 
1665 5514 
1666 5514 
1667 5514 
1668 5514 
1669 5514 
1670 5514 
1671 5514 
1672 5514 
1673 5514 
1674 5514 
1675 5514 
1676 5514 
1677 5514 
1678 5514 
1679 5514 
1680 5514 
1681 5514 
1682 5514 
1683 5514 
1684 5514 
1685 5514 
1686 5514 
1687 5514 
1688 5514 
1689 5514 
1690 5514 
1691 5514 
1692 5514 
1693 5514 
1694 5514 
1695 5514 
1696 5514 
1697 5514 
1698 5514 
1699 5514 
1700 5514 
1701 5514 
1702 5514 
1703 5514 
1704 5514 
1705 5514 
1706 5514 
1707 5514 
1708 5514 
1709 5514 
1710 5514 
1711 5514 
1712 5514 
1713 5514 
1714 5514 
1715 5514 
1716 5514 
1717 5514 
1718 5514 
1719 5514 
1720 5514 
1721 5514 
1722 5514 
1723 5514 
1724 5514 
1725 5514 
1726 5514 
1727 5514 
1728 5514 
1729 5514 
1730 5514 
1731 5514 
1732 5514 
1733 5514 
1734 5514 
1735 5514 
1736 5514 
1737 5514 
1738 5514 
1739 5514 
1740 5514 
1741 5514 
1742 5514 
1743 5514 
1744 5514 
1745 5514 
1746 5514 
1747 5514 
1748 5514 
1749 5514 
1750 5514 
1751 5514 
1752 5514 
1753 5514 
1754 5514 
1755 5514 
1756 5514 
1757 5514 
1758 5514 
1759 5514 
1760 5514 
1761 5514 
1762 5514 
1763 5514 
1764 5514 
1765 5514 
1766 5514 
1767 5514 
1768 5514 
1769 5514 
1770 5514 
1771 5514 
1772 5514 
1773 5514 
1774 5514 
1775 5514 
1776 5514 
1777 5514 
1778 5514 
1779 5514 
1780 5514 
1781 5514 
1782 5514 
1783 5514 
1784 5514 
1785 5514 
1786 5514 
1787 5514 
1788 5514 
1789 5514 
1790 5514 
1791 5514 
1792 5514 
1793 5514 
1794 5514 
1795 5514 
1796 5514 
1797 5514 
1798 5514 
1799 5514 
1800 5514 
1801 5514 
1802 5514 
1803 5514 
1804 5514 
1805 5514 
1806 5514 
1807 5514 
1808 5514 
1809 5514 
1810 5514 
1811 5514 
1812 5514 
1813 5514 
1814 5514 
1815 5514 
1816 5514 
1817 5514 
1818 5514 
1819 5514 
1820 5514 
1821 5514 
1822 5514 
1823 5514 
1824 5514 
1825 5514 
1826 5514 
1827 5514 
1828 5514 
1829 5514 
1830 5514 
1831 5514 
1832 5514 
1833 5514 
1834 5514 
1835 5514 
1836 5514 
1837 5514 
1838 5514 
1839 5514 
1840 5514 
1841 5514 
1842 5514 
1843 5514 
1844 5514 
1845 5514 
1846 5514 
1847 5514 
1848 5514 
1849 5514 
1850 5514 
1851 5514 
1852 5514 
1853 5514 
1854 5514 
1855 5514 
1856 5514 
1857 5514 
1858 5514 
1859 5514 
1860 5514 
1861 5514 
1862 5514 
1863 5514 
1864 5514 
1865 5514 
1866 5514 
1867 5514 
1868 5514 
1869 5514 
1870 5514 
1871 5514 
1872 5514 
1873 5514 
1874 5514 
1875 5514 
1876 5514 
1877 5514 
1878 5514 
1879 5514 
1880 5514 
1881 5514 
1882 5514 
1883 5514 
1884 5514 
1885 5514 
1886 5514 
1887 5514 
1888 5514 
1889 5514 
1890 5514 
1891 5514 
1892 5514 
1893 5514 
1894 5514 
1895 5514 
1896 5514 
1897 5514 
1898 5514 
1899 5514 
1900 5514 
1901 5514 
1902 5514 
1903 5514 
1904 5514 
1905 5514 
1906 5514 
1907 5514 
1908 5514 
1909 5514 
1910 5514 
1911 5514 
1912 5514 
1913 5514 
1914 5514 
1915 5514 
1916 5514 
1917 5514 
1918 5514 
1919 5514 
1920 5514 
1921 5514 
1922 5514 
1923 5514 
1924 5514 
1925 5514 
1926 5514 
1927 5514 
1928 5514 
1929 5514 
1930 5514 
1931 5514 
1932 5514 
1933 5514 
1934 5514 
1935 5514 
1936 5514 
1937 5514 
1938 5514 
1939 5514 
1940 5514 
1941 5514 
1942 5514 
1943 5514 
1944 5514 
1945 5514 
1946 5514 
1947 5514 
1948 5514 
1949 5514 
1950 5514 
1951 5514 
1952 5514 
1953 5514 
1954 5514 
1955 5514 
1956 5514 
1957 5514 
1958 5514 
1959 5514 
1960 5514 
1961 5514 
1962 5514 
1963 5514 
1964 5514 
1965 5514 
1966 5514 
1967 5514 
1968 5514 
1969 5514 
1970 5514 
1971 5514 
1972 5514 
1973 5514 
1974 5514 
1975 5514 
1976 5514 
1977 5514 
1978 5514 
1979 5514 
1980 5514 
1981 5514 
1982 5514 
1983 5514 
1984 5514 
1985 5514 
1986 5514 
1987 5514 
1988 5514 
1989 5514 
1990 5514 
1991 5514 
1992 5514 
1993 5514 
1994 5514 
1995 5514 
1996 5514 
1997 5514 
1998 5514 
1999 5514 
2000 5514 
2001 5514 
2002 5514 
2003 5514 
2004 5514 
2005 5514 
2006 5514 
2007 5514 
2008 5514 
2009 5514 
2010 5514 
2011 5514 
2012 5514 
2013 5514 
2014 5514 
2015 5514 
2016 5514 
2017 5514 
2018 5514 
2019 5514 
2020 5514 
2021 5514 
2022 5514 
2023 5514 
2024 5514 
2025 5514 
2026 5514 
2027 5514 
2028 5514 
2029 5514 
2030 5514 
2031 5514 
2032 5514 
2033 5514 
2034 5514 
2035 5514 
2036 5514 
2037 5514 
2038 5514 
2039 5514 
2040 5514 
2041 5514 
2042 5514 
2043 5514 
2044 5514 
2045 5514 
2046 5514 
2047 5514 
2048 5514 
2049 5514 
2050 5514 
2051 5514 
2052 5514 
2053 5514 
2054 5514 
2055 5514 
2056 5514 
2057 5514 
2058 5514 
2059 5514 
2060 5514 
2061 5514 
2062 5514 
2063 5514 
2064 5514 
2065 5514 
2066 5514 
2067 5514 
2068 5514 
2069 5514 
2070 5514 
2071 5514 
2072 5514 
2073 5514 
2074 5514 
2075 5514 
2076 5514 
2077 5514 
2078 5514 
2079 5514 
2080 5514 
2081 5514 
2082 5514 
2083 5514 
2084 5514 
2085 5514 
2086 5514 
2087 5514 
2088 5514 
2089 5514 
2090 5514 
2091 5514 
2092 5514 
2093 5514 
2094 5514 
2095 5514 
2096 5514 
2097 5514 
2098 5514 
2099 5514 
2100 5514 
2101 5514 
2102 5514 
2103 5514 
2104 5514 
2105 5514 
2106 5514 
2107 5514 
2108 5514 
2109 5514 
2110 5514 
2111 5514 
2112 5514 
2113 5514 
2114 5514 
2115 5514 
2116 5514 
2117 5514 
2118 5514 
2119 5514 
2120 5514 
2121 5514 
2122 5514 
2123 5514 
2124 5514 
2125 5514 
2126 5514 
2127 5514 
2128 5514 
2129 5514 
2130 5514 
2131 5514 
2132 5514 
2133 5514 
2134 5514 
2135 5514 
2136 5514 
2137 5514 
2138 5514 
2139 5514 
2140 5514 
2141 5514 
2142 5514 
2143 5514 
2144 5514 
2145 5514 
2146 5514 
2147 5514 
2148 5514 
2149 5514 
2150 5514 
2151 5514 
2152 5514 
2153 5514 
2154 5514 
2155 5514 
2156 5514 
2157 5514 
2158 5514 
2159 5514 
2160 5514 
2161 5514 
2162 5514 
2163 5514 
2164 5514 
2165 5514 
2166 5514 
2167 5514 
2168 5514 
2169 5514 
2170 5514 
2171 5514 
2172 5514 
2173 5514 
2174 5514 
2175 5514 
2176 5514 
2177 5514 
2178 5514 
2179 5514 
2180 5514 
2181 5514 
2182 5514 
2183 5514 
2184 5514 
2185 5514 
2186 5514 
2187 5514 
2188 5514 
2189 5514 
2190 5514 
2191 5514 
2192 5514 
2193 5514 
2194 5514 
2195 5514 
2196 5514 
2197 5514 
2198 5514 
2199 5514 
2200 5514 
2201 5514 
2202 5514 
2203 5514 
2204 5514 
2205 5514 
2206 5514 
2207 5514 
2208 5514 
2209 5514 
2210 5514 
2211 5514 
2212 5514 
2213 5514 
2214 5514 
2215 5514 
2216 5514 
2217 5514 
2218 5514 
2219 5514 
2220 5514 
2221 5514 
2222 5514 
2223 5514 
2224 5514 
2225 5514 
2226 5514 
2227 5514 
2228 5514 
2229 5514 
2230 5514 
2231 5514 
2232 5514 
2233 5514 
2234 5514 
2235 5514 
2236 5514 
2237 5514 
2238 5514 
2239 5514 
2240 5514 
2241 5514 
2242 5514 
2243 5514 
2244 5514 
2245 5514 
2246 5514 
2247 5514 
2248 5514 
2249 5514 
2250 5514 
2251 5514 
2252 5514 
2253 5514 
2254 5514 
2255 5514 
2256 5514 
2257 5514 
2258 5514 
2259 5514 
2260 5514 
2261 5514 
2262 5514 
2263 5514 
2264 5514 
2265 5514 
2266 5514 
2267 5514 
2268 5514 
2269 5514 
2270 5514 
2271 5514 
2272 5514 
2273 5514 
2274 5514 
2275 5514 
2276 5514 
2277 5514 
2278 5514 
2279 5514 
2280 5514 
2281 5514 
2282 5514 
2283 5514 
2284 5514 
2285 5514 
2286 5514 
2287 5514 
2288 5514 
2289 5514 
2290 5514 
2291 5514 
2292 5514 
2293 5514 
2294 5514 
2295 5514 
2296 5514 
2297 5514 
2298 5514 
2299 5514 
2300 5514 
2301 5514 
2302 5514 
2303 5514 
2304 5514 
2305 5514 
2306 5514 
2307 5514 
2308 5514 
2309 5514 
2310 5514 
2311 5514 
2312 5514 
2313 5514 
2314 5514 
2315 5514 
2316 5514 
2317 5514 
2318 5514 
2319 5514 
2320 5514 
2321 5514 
2322 5514 
2323 5514 
2324 5514 
2325 5514 
2326 5514 
2327 5514 
2328 5514 
2329 5514 
2330 5514 
2331 5514 
2332 5514 
2333 5514 
2334 5514 
2335 5514 
2336 5514 
2337 5514 
2338 5514 
2339 5514 
2340 5514 
2341 5514 
2342 5514 
2343 5514 
2344 5514 
2345 5514 
2346 5514 
2347 5514 
2348 5514 
2349 5514 
2350 5514 
2351 5514 
2352 5514 
2353 5514 
2354 5514 
2355 5514 
2356 5514 
2357 5514 
2358 5514 
2359 5514 
2360 5514 
2361 5514 
2362 5514 
2363 5514 
2364 5514 
2365 5514 
2366 5514 
2367 5514 
2368 5514 
2369 5514 
2370 5514 
2371 5514 
2372 5514 
2373 5514 
2374 5514 
2375 5514 
2376 5514 
2377 5514 
2378 5514 
2379 5514 
2380 5514 
2381 5514 
2382 5514 
2383 5514 
2384 5514 
2385 5514 
2386 5514 
2387 5514 
2388 5514 
2389 5514 
2390 5514 
2391 5514 
2392 5514 
2393 5514 
2394 5514 
2395 5514 
2396 5514 
2397 5514 
2398 5514 
2399 5514 
2400 5514 
2401 5514 
2402 5514 
2403 5514 
2404 5514 
2405 5514 
2406 5514 
2407 5514 
2408 5514 
2409 5514 
2410 5514 
2411 5514 
2412 5514 
2413 5514 
2414 5514 
2415 5514 
2416 5514 
2417 5514 
2418 5514 
2419 5514 
2420 5514 
2421 5514 
2422 5514 
2423 5514 
2424 5514 
2425 5514 
2426 5514 
2427 5514 
2428 5514 
2429 5514 
2430 5514 
2431 5514 
2432 5514 
2433 5514 
2434 5514 
2435 5514 
2436 5514 
2437 5514 
2438 5514 
2439 5514 
2440 5514 
2441 5514 
2442 5514 
2443 5514 
2444 5514 
2445 5514 
2446 5514 
2447 5514 
2448 5514 
2449 5514 
2450 5514 
2451 5514 
2452 5514 
2453 5514 
2454 5514 
2455 5514 
2456 5514 
2457 5514 
2458 5514 
2459 5514 
2460 5514 
2461 5514 
2462 5514 
2463 5514 
2464 5514 
2465 5514 
2466 5514 
2467 5514 
2468 5514 
2469 5514 
2470 5514 
2471 5514 
2472 5514 
2473 5514 
2474 5514 
2475 5514 
2476 5514 
2477 5514 
2478 5514 
2479 5514 
2480 5514 
2481 5514 
2482 5514 
2483 5514 
2484 5514 
2485 5514 
2486 5514 
2487 5514 
2488 5514 
2489 5514 
2490 5514 
2491 5514 
2492 5514 
2493 5514 
2494 5514 
2495 5514 
2496 5514 
2497 5514 
2498 5514 
2499 5514 
2500 5514 
2501 5514 
2502 5514 
2503 5514 
2504 5514 
2505 5514 
2506 5514 
2507 5514 
2508 5514 
2509 5514 
2510 5514 
2511 5514 
2512 5514 
2513 5514 
2514 5514 
2515 5514 
2516 5514 
2517 5514 
2518 5514 
2519 5514 
2520 5514 
2521 5514 
2522 5514 
2523 5514 
2524 5514 
2525 5514 
2526 5514 
2527 5514 
2528 5514 
2529 5514 
2530 5514 
2531 5514 
2532 5514 
2533 5514 
2534 5514 
2535 5514 
2536 5514 
2537 5514 
2538 5514 
2539 5514 
2540 5514 
2541 5514 
2542 5514 
2543 5514 
2544 5514 
2545 5514 
2546 5514 
2547 5514 
2548 5514 
2549 5514 
2550 5514 
2551 5514 
2552 5514 
2553 5514 
2554 5514 
2555 5514 
2556 5514 
2557 5514 
2558 5514 
2559 5514 
2560 5514 
2561 5514 
2562 5514 
2563 5514 
2564 5514 
2565 5514 
2566 5514 
2567 5514 
2568 5514 
2569 5514 
2570 5514 
2571 5514 
2572 5514 
2573 5514 
2574 5514 
2575 5514 
2576 5514 
2577 5514 
2578 5514 
2579 5514 
2580 5514 
2581 5514 
2582 5514 
2583 5514 
2584 5514 
2585 5514 
2586 5514 
2587 5514 
2588 5514 
2589 5514 
2590 5514 
2591 5514 
2592 5514 
2593 5514 
2594 5514 
2595 5514 
2596 5514 
2597 5514 
2598 5514 
2599 5514 
2600 5514 
2601 5514 
2602 5514 
2603 5514 
2604 5514 
2605 5514 
2606 5514 
2607 5514 
2608 5514 
2609 5514 
2610 5514 
2611 5514 
2612 5514 
2613 5514 
2614 5514 

